NAME          DCAP_2_4_3_500_SS282
ROWS
 N  OBJ
 L  CON1
 L  CON2
 L  CON3
 L  CON4
 L  CON5
 L  CON6
 L  CON7
 L  CON8
 L  CON9
 L  CON10
 L  CON11
 L  CON12
 E  CON13
 E  CON14
 E  CON15
 E  CON16
 E  CON17
 E  CON18
 E  CON19
 E  CON20
 E  CON21
 E  CON22
 E  CON23
 E  CON24
COLUMNS
    x[1,1]    OBJ       6.180167      CON1      1.000000    
    x[1,1]    CON7      -1.000000     CON8      -1.000000   
    x[1,1]    CON9      -1.000000   
    x[1,2]    OBJ       6.563535      CON2      1.000000    
    x[1,2]    CON8      -1.000000     CON9      -1.000000   
    x[1,3]    OBJ       7.443064      CON3      1.000000    
    x[1,3]    CON9      -1.000000   
    x[2,1]    OBJ       6.732585      CON4      1.000000    
    x[2,1]    CON10     -1.000000     CON11     -1.000000   
    x[2,1]    CON12     -1.000000   
    x[2,2]    OBJ       5.039546      CON5      1.000000    
    x[2,2]    CON11     -1.000000     CON12     -1.000000   
    x[2,3]    OBJ       6.054841      CON6      1.000000    
    x[2,3]    CON12     -1.000000   
    MARKER    'MARKER'                'INTORG'
    u[1,1]    OBJ       48.076654     CON1      -1.000000   
    u[1,2]    OBJ       20.066487     CON2      -1.000000   
    u[1,3]    OBJ       32.230043     CON3      -1.000000   
    u[2,1]    OBJ       49.996186     CON4      -1.000000   
    u[2,2]    OBJ       49.466655     CON5      -1.000000   
    u[2,3]    OBJ       27.484319     CON6      -1.000000   
    y[1,1,1]  OBJ       6.289199      CON7      0.575269    
    y[1,1,1]  CON13     1.000000    
    y[1,1,2]  OBJ       7.688161      CON8      0.838294    
    y[1,1,2]  CON14     1.000000    
    y[1,1,3]  OBJ       9.072426      CON9      0.950844    
    y[1,1,3]  CON15     1.000000    
    y[1,2,1]  OBJ       9.477215      CON7      1.250336    
    y[1,2,1]  CON16     1.000000    
    y[1,2,2]  OBJ       5.940531      CON8      1.221568    
    y[1,2,2]  CON17     1.000000    
    y[1,2,3]  OBJ       6.259079      CON9      1.486038    
    y[1,2,3]  CON18     1.000000    
    y[1,3,1]  OBJ       6.340867      CON7      1.116873    
    y[1,3,1]  CON19     1.000000    
    y[1,3,2]  OBJ       9.922334      CON8      1.305491    
    y[1,3,2]  CON20     1.000000    
    y[1,3,3]  OBJ       9.664925      CON9      0.712247    
    y[1,3,3]  CON21     1.000000    
    y[1,4,1]  OBJ       9.311161      CON7      1.361703    
    y[1,4,1]  CON22     1.000000    
    y[1,4,2]  OBJ       9.451595      CON8      1.492236    
    y[1,4,2]  CON23     1.000000    
    y[1,4,3]  OBJ       7.574541      CON9      1.010163    
    y[1,4,3]  CON24     1.000000    
    y[2,1,1]  OBJ       5.048974      CON10     0.575269    
    y[2,1,1]  CON13     1.000000    
    y[2,1,2]  OBJ       8.632328      CON11     0.838294    
    y[2,1,2]  CON14     1.000000    
    y[2,1,3]  OBJ       9.868411      CON12     0.950844    
    y[2,1,3]  CON15     1.000000    
    y[2,2,1]  OBJ       9.326106      CON10     1.250336    
    y[2,2,1]  CON16     1.000000    
    y[2,2,2]  OBJ       5.898809      CON11     1.221568    
    y[2,2,2]  CON17     1.000000    
    y[2,2,3]  OBJ       8.212252      CON12     1.486038    
    y[2,2,3]  CON18     1.000000    
    y[2,3,1]  OBJ       6.172784      CON10     1.116873    
    y[2,3,1]  CON19     1.000000    
    y[2,3,2]  OBJ       6.592890      CON11     1.305491    
    y[2,3,2]  CON20     1.000000    
    y[2,3,3]  OBJ       5.235713      CON12     0.712247    
    y[2,3,3]  CON21     1.000000    
    y[2,4,1]  OBJ       6.018894      CON10     1.361703    
    y[2,4,1]  CON22     1.000000    
    y[2,4,2]  OBJ       9.944397      CON11     1.492236    
    y[2,4,2]  CON23     1.000000    
    y[2,4,3]  OBJ       9.836743      CON12     1.010163    
    y[2,4,3]  CON24     1.000000    
    z[1,1]    OBJ       584.053712    CON13     1.000000    
    z[1,2]    OBJ       515.932843    CON14     1.000000    
    z[1,3]    OBJ       661.183773    CON15     1.000000    
    z[2,1]    OBJ       946.627056    CON16     1.000000    
    z[2,2]    OBJ       764.726867    CON17     1.000000    
    z[2,3]    OBJ       686.966407    CON18     1.000000    
    z[3,1]    OBJ       674.406813    CON19     1.000000    
    z[3,2]    OBJ       949.154622    CON20     1.000000    
    z[3,3]    OBJ       657.506656    CON21     1.000000    
    z[4,1]    OBJ       518.004844    CON22     1.000000    
    z[4,2]    OBJ       715.489526    CON23     1.000000    
    z[4,3]    OBJ       637.571508    CON24     1.000000    
    MARKER    'MARKER'                 'INTEND'
RHS
    RHS       CON1      -0.000000     CON2      -0.000000   
    RHS       CON3      -0.000000     CON4      -0.000000   
    RHS       CON5      -0.000000     CON6      -0.000000   
    RHS       CON7      -0.000000     CON8      -0.000000   
    RHS       CON9      -0.000000     CON10     -0.000000   
    RHS       CON11     -0.000000     CON12     -0.000000   
    RHS       CON13     1.000000      CON14     1.000000    
    RHS       CON15     1.000000      CON16     1.000000    
    RHS       CON17     1.000000      CON18     1.000000    
    RHS       CON19     1.000000      CON20     1.000000    
    RHS       CON21     1.000000      CON22     1.000000    
    RHS       CON23     1.000000      CON24     1.000000    
BOUNDS
 BV BOUND     u[1,1]  
 BV BOUND     u[1,2]  
 BV BOUND     u[1,3]  
 BV BOUND     u[2,1]  
 BV BOUND     u[2,2]  
 BV BOUND     u[2,3]  
 BV BOUND     y[1,1,1]
 BV BOUND     y[1,1,2]
 BV BOUND     y[1,1,3]
 BV BOUND     y[1,2,1]
 BV BOUND     y[1,2,2]
 BV BOUND     y[1,2,3]
 BV BOUND     y[1,3,1]
 BV BOUND     y[1,3,2]
 BV BOUND     y[1,3,3]
 BV BOUND     y[1,4,1]
 BV BOUND     y[1,4,2]
 BV BOUND     y[1,4,3]
 BV BOUND     y[2,1,1]
 BV BOUND     y[2,1,2]
 BV BOUND     y[2,1,3]
 BV BOUND     y[2,2,1]
 BV BOUND     y[2,2,2]
 BV BOUND     y[2,2,3]
 BV BOUND     y[2,3,1]
 BV BOUND     y[2,3,2]
 BV BOUND     y[2,3,3]
 BV BOUND     y[2,4,1]
 BV BOUND     y[2,4,2]
 BV BOUND     y[2,4,3]
 BV BOUND     z[1,1]  
 BV BOUND     z[1,2]  
 BV BOUND     z[1,3]  
 BV BOUND     z[2,1]  
 BV BOUND     z[2,2]  
 BV BOUND     z[2,3]  
 BV BOUND     z[3,1]  
 BV BOUND     z[3,2]  
 BV BOUND     z[3,3]  
 BV BOUND     z[4,1]  
 BV BOUND     z[4,2]  
 BV BOUND     z[4,3]  
ENDATA
